c leafs=66, vars=16, seed=1, tickle=1, pretickle_path=1
p cnf 773 2074                                                                
e 17 18 19 20 21 22 23 24 25 26 27 28 29 30 31 32 33 34 35 36 37 38 39 40 41 42 43 44 45 46 47 48 49 50 51 52 53 54 55 56 57 58 59 60 61 62 63 64 65 66 67 68 69 70 71 72 73 74 75 76 77 78 79 80 81 82  0
a 1 2 3 4 5 6 7 8 9 10 11 12 13 14 15 16  0
e 83 84 85 86 87 88 89 90 91 92 93 94 95 96 97 98 99 100 101 102 103 104 105 106 107 108 109 110 111 112 113 114 115 116 117 118 119 120 121 122 123 124 125 126 127 128 129 130 131 132 133 134 135 136 137 138 139 140 141 142 143 144 145 146 147 148 149 150 151 152 153 154 155 156 157 158 159 160 161 162 163 164 165 166 167 168 169 170 171 172 173 174 175 176 177 178 179 180 181 182 183 184 185 186 187 188 189 190 191 192 193 194 195 196 197 198 199 200 201 202 203 204 205 206 207 208 209 210 211 212 213 214 215 216 217 218 219 220 221 222 223 224 225 226 227 228 229 230 231 232 233 234 235 236 237 238 239 240 241 242 243 244 245 246 247 248 249 250 251 252 253 254 255 256 257 258 259 260 261 262 263 264 265 266 267 268 269 270 271 272 273 274 275 276 277 278 279 280 281 282 283 284 285 286 287 288 289 290 291 292 293 294 295 296 297 298 299 300 301 302 303 304 305 306 307 308 309 310 311 312 313 314 315 316 317 318 319 320 321 322 323 324 325 326 327 328 329 330 331 332 333 334 335 336 337 338 339 340 341 342 343 344 345 346 347 348 349 350 351 352 353 354 355 356 357 358 359 360 361 362 363 364 365 366 367 368 369 370 371 372 373 374 375 376 377 378 379 380 381 382 383 384 385 386 387 388 389 390 391 392 393 394 395 396 397 398 399 400 401 402 403 404 405 406 407 408 409 410 411 412 413 414 415 416 417 418 419 420 421 422 423 424 425 426 427 428 429 430 431 432 433 434 435 436 437 438 439 440 441 442 443 444 445 446 447 448 449 450 451 452 453 454 455 456 457 458 459 460 461 462 463 464 465 466 467 468 469 470 471 472 473 474 475 476 477 478 479 480 481 482 483 484 485 486 487 488 489 490 491 492 493 494 495 496 497 498 499 500 501 502 503 504 505 506 507 508 509 510 511 512 513 514 515 516 517 518 519 520 521 522 523 524 525 526 527 528 529 530 531 532 533 534 535 536 537 538 539 540 541 542 543 544 545 546 547 548 549 550 551 552 553 554 555 556 557 558 559 560 561 562 563 564 565 566 567 568 569 570 571 572 573 574 575 576 577 578 579 580 581 582 583 584 585 586 587 588 589 590 591 592 593 594 595 596 597 598 599 600 601 602 603 604 605 606 607 608 609 610 611 612 613 614 615 616 617 618 619 620 621 622 623 624 625 626 627 628 629 630 631 632 633 634 635 636 637 638 639 640 641 642 643 644 645 646 647 648 649 650 651 652 653 654 655 656 657 658 659 660 661 662 663 664 665 666 667 668 669 670 671 672 673 674 675 676 677 678 679 680 681 682 683 684 685 686 687 688 689 690 691 692 693 694 695 696 697 698 699 700 701 702 703 704 705 706 707 708 709 710 711 712 713 714 715 716 717 718 719 720 721 722 723 724 725 726 727 728 729 730 731 732 733 734 735 736 737 738 739 740 741 742 743 744 745 746 747 748 749 750 751 752 753 754 755 756 757 758 759 760 761 762 763 764 765 766 767 768 769 770 771 772 773  0
773  0
-83 -13 7  0
83 13  0
83 -7  0
-84 -7 13  0
84 7  0
84 -13  0
-85 1 9  0
85 -1  0
85 -9  0
-86 -9 -1  0
86 9  0
86 1  0
87 -2 -3  0
-87 2  0
-87 3  0
88 3 2  0
-88 -3  0
-88 -2  0
89 5 -1  0
-89 -5  0
-89 1  0
90 1 -5  0
-90 -1  0
-90 5  0
91 3 -4  0
-91 -3  0
-91 4  0
92 4 -3  0
-92 -4  0
-92 3  0
93 -6 -16  0
-93 6  0
-93 16  0
94 16 6  0
-94 -16  0
-94 -6  0
95 6 -5  0
-95 -6  0
-95 5  0
96 5 -6  0
-96 -5  0
-96 6  0
97 13 8  0
-97 -13  0
-97 -8  0
98 -8 -13  0
-98 8  0
-98 13  0
99 6 5  0
-99 -6  0
-99 -5  0
100 -5 -6  0
-100 5  0
-100 6  0
-101 2 11  0
101 -2  0
101 -11  0
102 -1 -5  0
-102 1  0
-102 5  0
103 5 1  0
-103 -5  0
-103 -1  0
104 -3 -4  0
-104 3  0
-104 4  0
105 4 3  0
-105 -4  0
-105 -3  0
106 7 3  0
-106 -7  0
-106 -3  0
107 -3 -7  0
-107 3  0
-107 7  0
-108 -6 8  0
108 6  0
108 -8  0
-109 -8 6  0
109 8  0
109 -6  0
-110 -1 9  0
110 1  0
110 -9  0
-111 -9 1  0
111 9  0
111 -1  0
112 8 -3  0
-112 -8  0
-112 3  0
113 3 -8  0
-113 -3  0
-113 8  0
114 -3 -8  0
-114 3  0
-114 8  0
115 8 3  0
-115 -8  0
-115 -3  0
116 8 -16  0
-116 -8  0
-116 16  0
117 16 -8  0
-117 -16  0
-117 8  0
118 5 -10  0
-118 -5  0
-118 10  0
119 10 -5  0
-119 -10  0
-119 5  0
120 -8 -16  0
-120 8  0
-120 16  0
121 16 8  0
-121 -16  0
-121 -8  0
-122 -4 73  0
122 4  0
122 -73  0
-123 -73 -7  0
123 73  0
123 7  0
-124 -74 -3  0
124 74  0
124 3  0
-125 7 74  0
125 -7  0
125 -74  0
126 71 8  0
-126 -71  0
-126 -8  0
127 5 -71  0
-127 -5  0
-127 71  0
128 -10 -72  0
-128 10  0
-128 72  0
129 72 1  0
-129 -72  0
-129 -1  0
130 -5 -68  0
-130 5  0
-130 68  0
131 68 9  0
-131 -68  0
-131 -9  0
132 -3 -67  0
-132 3  0
-132 67  0
133 67 2  0
-133 -67  0
-133 -2  0
-134 -69 -6  0
134 69  0
134 6  0
-135 7 69  0
135 -7  0
135 -69  0
-136 16 70  0
136 -16  0
136 -70  0
-137 -70 11  0
137 70  0
137 -11  0
138 4 -78  0
-138 -4  0
-138 78  0
139 78 -7  0
-139 -78  0
-139 7  0
140 12 -77  0
-140 -12  0
-140 77  0
141 77 9  0
-141 -77  0
-141 -9  0
142 76 -5  0
-142 -76  0
-142 5  0
143 -8 -76  0
-143 8  0
-143 76  0
144 75 5  0
-144 -75  0
-144 -5  0
145 -13 -75  0
-145 13  0
-145 75  0
-146 -1 81  0
146 1  0
146 -81  0
-147 -81 5  0
147 81  0
147 -5  0
-148 -6 82  0
148 6  0
148 -82  0
-149 -82 9  0
149 82  0
149 -9  0
-150 -79 3  0
150 79  0
150 -3  0
-151 -10 79  0
151 10  0
151 -79  0
-152 -80 12  0
152 80  0
152 -12  0
-153 -15 80  0
153 15  0
153 -80  0
154 60 8  0
-154 -60  0
-154 -8  0
155 2 -60  0
-155 -2  0
-155 60  0
156 14 -61  0
-156 -14  0
-156 61  0
157 61 -11  0
-157 -61  0
-157 11  0
-158 -59 -3  0
158 59  0
158 3  0
-159 1 59  0
159 -1  0
159 -59  0
-160 -58 7  0
160 58  0
160 -7  0
-161 -10 58  0
161 10  0
161 -58  0
-162 5 66  0
162 -5  0
162 -66  0
-163 -66 -10  0
163 66  0
163 10  0
-164 -7 65  0
164 7  0
164 -65  0
-165 -65 12  0
165 65  0
165 -12  0
-166 3 64  0
166 -3  0
166 -64  0
-167 -64 5  0
167 64  0
167 -5  0
-168 11 62  0
168 -11  0
168 -62  0
-169 -62 -14  0
169 62  0
169 14  0
-170 -63 -13  0
170 63  0
170 13  0
-171 2 63  0
171 -2  0
171 -63  0
172 2 -56  0
-172 -2  0
-172 56  0
173 56 -7  0
-173 -56  0
-173 7  0
174 3 -57  0
-174 -3  0
-174 57  0
175 57 -14  0
-175 -57  0
-175 14  0
176 -10 -55  0
-176 10  0
-176 55  0
177 55 -16  0
-177 -55  0
-177 16  0
178 16 -54  0
-178 -16  0
-178 54  0
179 54 4  0
-179 -54  0
-179 -4  0
-180 4 51  0
180 -4  0
180 -51  0
-181 -51 -8  0
181 51  0
181 8  0
-182 16 50  0
182 -16  0
182 -50  0
-183 -50 6  0
183 50  0
183 -6  0
-184 -15 53  0
184 15  0
184 -53  0
-185 -53 9  0
185 53  0
185 -9  0
-186 -52 12  0
186 52  0
186 -12  0
-187 -7 52  0
187 7  0
187 -52  0
188 11 -46  0
-188 -11  0
-188 46  0
189 46 -8  0
-189 -46  0
-189 8  0
190 47 2  0
-190 -47  0
-190 -2  0
191 16 -47  0
-191 -16  0
-191 47  0
-192 -48 -15  0
192 48  0
192 15  0
-193 -5 48  0
193 5  0
193 -48  0
-194 7 49  0
194 -7  0
194 -49  0
-195 -49 -10  0
195 49  0
195 10  0
-196 -7 41  0
196 7  0
196 -41  0
-197 -41 16  0
197 41  0
197 -16  0
-198 9 42  0
198 -9  0
198 -42  0
-199 -42 -14  0
199 42  0
199 14  0
200 43 -15  0
-200 -43  0
-200 15  0
201 -1 -43  0
-201 1  0
-201 43  0
202 -3 -45  0
-202 3  0
-202 45  0
203 45 12  0
-203 -45  0
-203 -12  0
204 8 -44  0
-204 -8  0
-204 44  0
205 44 14  0
-205 -44  0
-205 -14  0
-206 -39 -16  0
206 39  0
206 16  0
-207 2 39  0
207 -2  0
207 -39  0
-208 -2 40  0
208 2  0
208 -40  0
-209 -40 -1  0
209 40  0
209 1  0
-210 -37 14  0
210 37  0
210 -14  0
-211 7 37  0
211 -7  0
211 -37  0
-212 -38 10  0
212 38  0
212 -10  0
-213 13 38  0
213 -13  0
213 -38  0
214 36 7  0
-214 -36  0
-214 -7  0
215 -14 -36  0
-215 14  0
-215 36  0
216 35 7  0
-216 -35  0
-216 -7  0
217 -15 -35  0
-217 15  0
-217 35  0
-218 -12 34  0
218 12  0
218 -34  0
-219 -34 -6  0
219 34  0
219 6  0
-220 -33 11  0
220 33  0
220 -11  0
-221 5 33  0
221 -5  0
221 -33  0
222 22 -9  0
-222 -22  0
-222 9  0
223 10 -22  0
-223 -10  0
-223 22  0
224 21 -5  0
-224 -21  0
-224 5  0
225 -12 -21  0
-225 12  0
-225 21  0
-226 11 24  0
226 -11  0
226 -24  0
-227 -24 -9  0
227 24  0
227 9  0
-228 -23 12  0
228 23  0
228 -12  0
-229 -7 23  0
229 7  0
229 -23  0
230 20 3  0
-230 -20  0
-230 -3  0
231 6 -20  0
-231 -6  0
-231 20  0
232 19 -8  0
-232 -19  0
-232 8  0
233 5 -19  0
-233 -5  0
-233 19  0
234 18 -2  0
-234 -18  0
-234 2  0
235 5 -18  0
-235 -5  0
-235 18  0
236 17 6  0
-236 -17  0
-236 -6  0
237 15 -17  0
-237 -15  0
-237 17  0
238 29 -7  0
-238 -29  0
-238 7  0
239 -6 -29  0
-239 6  0
-239 29  0
240 30 10  0
-240 -30  0
-240 -10  0
241 13 -30  0
-241 -13  0
-241 30  0
-242 -14 32  0
242 14  0
242 -32  0
-243 -32 -12  0
243 32  0
243 12  0
-244 -31 5  0
244 31  0
244 -5  0
-245 -16 31  0
245 16  0
245 -31  0
246 -3 -25  0
-246 3  0
-246 25  0
247 25 -6  0
-247 -25  0
-247 6  0
248 26 14  0
-248 -26  0
-248 -14  0
249 -7 -26  0
-249 7  0
-249 26  0
-250 -28 -9  0
250 28  0
250 9  0
-251 5 28  0
251 -5  0
251 -28  0
-252 -27 1  0
252 27  0
252 -1  0
-253 -11 27  0
253 11  0
253 -27  0
254 3 -7  0
-254 -3  0
-254 7  0
255 7 -3  0
-255 -7  0
-255 3  0
256 -83 -84  0
-256 83  0
-256 84  0
257 -85 -86  0
-257 85  0
-257 86  0
-258 87 88  0
258 -87  0
258 -88  0
-259 89 90  0
259 -89  0
259 -90  0
-260 91 92  0
260 -91  0
260 -92  0
-261 93 94  0
261 -93  0
261 -94  0
-262 95 96  0
262 -95  0
262 -96  0
-263 97 98  0
263 -97  0
263 -98  0
-264 99 100  0
264 -99  0
264 -100  0
-265 -3 101  0
265 3  0
265 -101  0
-266 3 -101  0
266 -3  0
266 101  0
-267 102 103  0
267 -102  0
267 -103  0
-268 104 105  0
268 -104  0
268 -105  0
-269 106 107  0
269 -106  0
269 -107  0
270 -108 -109  0
-270 108  0
-270 109  0
271 -110 -111  0
-271 110  0
-271 111  0
-272 112 113  0
272 -112  0
272 -113  0
-273 114 115  0
273 -114  0
273 -115  0
-274 116 117  0
274 -116  0
274 -117  0
-275 118 119  0
275 -118  0
275 -119  0
-276 120 121  0
276 -120  0
276 -121  0
277 -122 -123  0
-277 122  0
-277 123  0
278 -124 -125  0
-278 124  0
-278 125  0
-279 126 127  0
279 -126  0
279 -127  0
-280 128 129  0
280 -128  0
280 -129  0
-281 130 131  0
281 -130  0
281 -131  0
-282 132 133  0
282 -132  0
282 -133  0
283 -134 -135  0
-283 134  0
-283 135  0
284 -136 -137  0
-284 136  0
-284 137  0
-285 138 139  0
285 -138  0
285 -139  0
-286 140 141  0
286 -140  0
286 -141  0
-287 142 143  0
287 -142  0
287 -143  0
-288 144 145  0
288 -144  0
288 -145  0
289 -146 -147  0
-289 146  0
-289 147  0
290 -148 -149  0
-290 148  0
-290 149  0
291 -150 -151  0
-291 150  0
-291 151  0
292 -152 -153  0
-292 152  0
-292 153  0
-293 154 155  0
293 -154  0
293 -155  0
-294 156 157  0
294 -156  0
294 -157  0
295 -158 -159  0
-295 158  0
-295 159  0
296 -160 -161  0
-296 160  0
-296 161  0
297 -162 -163  0
-297 162  0
-297 163  0
298 -164 -165  0
-298 164  0
-298 165  0
299 -166 -167  0
-299 166  0
-299 167  0
300 -168 -169  0
-300 168  0
-300 169  0
301 -170 -171  0
-301 170  0
-301 171  0
-302 172 173  0
302 -172  0
302 -173  0
-303 174 175  0
303 -174  0
303 -175  0
-304 176 177  0
304 -176  0
304 -177  0
-305 178 179  0
305 -178  0
305 -179  0
306 -180 -181  0
-306 180  0
-306 181  0
307 -182 -183  0
-307 182  0
-307 183  0
308 -184 -185  0
-308 184  0
-308 185  0
309 -186 -187  0
-309 186  0
-309 187  0
-310 188 189  0
310 -188  0
310 -189  0
-311 190 191  0
311 -190  0
311 -191  0
312 -192 -193  0
-312 192  0
-312 193  0
313 -194 -195  0
-313 194  0
-313 195  0
314 -196 -197  0
-314 196  0
-314 197  0
315 -198 -199  0
-315 198  0
-315 199  0
-316 200 201  0
316 -200  0
316 -201  0
-317 202 203  0
317 -202  0
317 -203  0
-318 204 205  0
318 -204  0
318 -205  0
319 -206 -207  0
-319 206  0
-319 207  0
320 -208 -209  0
-320 208  0
-320 209  0
321 -210 -211  0
-321 210  0
-321 211  0
322 -212 -213  0
-322 212  0
-322 213  0
-323 214 215  0
323 -214  0
323 -215  0
-324 216 217  0
324 -216  0
324 -217  0
325 -218 -219  0
-325 218  0
-325 219  0
326 -220 -221  0
-326 220  0
-326 221  0
-327 222 223  0
327 -222  0
327 -223  0
-328 224 225  0
328 -224  0
328 -225  0
329 -226 -227  0
-329 226  0
-329 227  0
330 -228 -229  0
-330 228  0
-330 229  0
-331 230 231  0
331 -230  0
331 -231  0
-332 232 233  0
332 -232  0
332 -233  0
-333 234 235  0
333 -234  0
333 -235  0
-334 236 237  0
334 -236  0
334 -237  0
-335 238 239  0
335 -238  0
335 -239  0
-336 240 241  0
336 -240  0
336 -241  0
337 -242 -243  0
-337 242  0
-337 243  0
338 -244 -245  0
-338 244  0
-338 245  0
-339 246 247  0
339 -246  0
339 -247  0
-340 248 249  0
340 -248  0
340 -249  0
341 -250 -251  0
-341 250  0
-341 251  0
342 -252 -253  0
-342 252  0
-342 253  0
-343 254 255  0
343 -254  0
343 -255  0
-344 12 256  0
344 -12  0
344 -256  0
-345 -12 256  0
345 12  0
345 -256  0
346 -259 -260  0
-346 259  0
-346 260  0
347 9 -261  0
-347 -9  0
-347 261  0
348 -9 -261  0
-348 9  0
-348 261  0
349 -3 -262  0
-349 3  0
-349 262  0
350 3 -262  0
-350 -3  0
-350 262  0
-351 -3 264  0
351 3  0
351 -264  0
-352 3 264  0
352 -3  0
352 -264  0
353 -265 -266  0
-353 265  0
-353 266  0
-354 267 268  0
354 -267  0
354 -268  0
-355 8 269  0
355 -8  0
355 -269  0
-356 -8 269  0
356 8  0
356 -269  0
-357 12 270  0
357 -12  0
357 -270  0
-358 -12 270  0
358 12  0
358 -270  0
359 -15 -272  0
-359 15  0
-359 272  0
360 15 -272  0
-360 -15  0
-360 272  0
-361 15 273  0
361 -15  0
361 -273  0
-362 -15 273  0
362 15  0
362 -273  0
363 -274 -275  0
-363 274  0
-363 275  0
-364 -10 276  0
364 10  0
364 -276  0
-365 10 276  0
365 -10  0
365 -276  0
366 16 -256  0
-366 -16  0
-366 256  0
367 -16 -256  0
-367 16  0
-367 256  0
368 -277 -278  0
-368 277  0
-368 278  0
369 278 277  0
-369 -278  0
-369 -277  0
370 -279 -280  0
-370 279  0
-370 280  0
371 280 279  0
-371 -280  0
-371 -279  0
372 -281 -282  0
-372 281  0
-372 282  0
373 282 281  0
-373 -282  0
-373 -281  0
374 -283 -284  0
-374 283  0
-374 284  0
375 284 283  0
-375 -284  0
-375 -283  0
376 -285 -286  0
-376 285  0
-376 286  0
377 285 286  0
-377 -285  0
-377 -286  0
378 -287 -288  0
-378 287  0
-378 288  0
379 287 288  0
-379 -287  0
-379 -288  0
380 -289 -290  0
-380 289  0
-380 290  0
381 290 289  0
-381 -290  0
-381 -289  0
382 -291 -292  0
-382 291  0
-382 292  0
383 291 292  0
-383 -291  0
-383 -292  0
384 -293 -294  0
-384 293  0
-384 294  0
385 293 294  0
-385 -293  0
-385 -294  0
386 -295 -296  0
-386 295  0
-386 296  0
387 295 296  0
-387 -295  0
-387 -296  0
388 -297 -298  0
-388 297  0
-388 298  0
389 297 298  0
-389 -297  0
-389 -298  0
-390 300 301  0
390 -300  0
390 -301  0
-391 302 303  0
391 -302  0
391 -303  0
-392 -303 -302  0
392 303  0
392 302  0
-393 304 305  0
393 -304  0
393 -305  0
-394 -305 -304  0
394 305  0
394 304  0
-395 306 307  0
395 -306  0
395 -307  0
-396 -307 -306  0
396 307  0
396 306  0
-397 308 309  0
397 -308  0
397 -309  0
-398 -309 -308  0
398 309  0
398 308  0
-399 310 311  0
399 -310  0
399 -311  0
-400 -311 -310  0
400 311  0
400 310  0
-401 312 313  0
401 -312  0
401 -313  0
-402 -313 -312  0
402 313  0
402 312  0
-403 314 315  0
403 -314  0
403 -315  0
-404 -314 -315  0
404 314  0
404 315  0
-405 317 318  0
405 -317  0
405 -318  0
-406 319 320  0
406 -319  0
406 -320  0
-407 -320 -319  0
407 320  0
407 319  0
-408 321 322  0
408 -321  0
408 -322  0
-409 -322 -321  0
409 322  0
409 321  0
-410 323 324  0
410 -323  0
410 -324  0
-411 -324 -323  0
411 324  0
411 323  0
-412 325 326  0
412 -325  0
412 -326  0
-413 -325 -326  0
413 325  0
413 326  0
414 -327 -328  0
-414 327  0
-414 328  0
415 327 328  0
-415 -327  0
-415 -328  0
416 -329 -330  0
-416 329  0
-416 330  0
417 330 329  0
-417 -330  0
-417 -329  0
418 -331 -332  0
-418 331  0
-418 332  0
419 332 331  0
-419 -332  0
-419 -331  0
420 -333 -334  0
-420 333  0
-420 334  0
421 333 334  0
-421 -333  0
-421 -334  0
422 -335 -336  0
-422 335  0
-422 336  0
423 335 336  0
-423 -335  0
-423 -336  0
424 -337 -338  0
-424 337  0
-424 338  0
425 338 337  0
-425 -338  0
-425 -337  0
426 -339 -340  0
-426 339  0
-426 340  0
427 340 339  0
-427 -340  0
-427 -339  0
428 -341 -342  0
-428 341  0
-428 342  0
429 342 341  0
-429 -342  0
-429 -341  0
430 -8 -343  0
-430 8  0
-430 343  0
431 8 -343  0
-431 -8  0
-431 343  0
-432 16 344  0
432 -16  0
432 -344  0
-433 -16 345  0
433 16  0
433 -345  0
434 -2 -347  0
-434 2  0
-434 347  0
435 2 -348  0
-435 -2  0
-435 348  0
436 15 -349  0
-436 -15  0
-436 349  0
437 -15 -350  0
-437 15  0
-437 350  0
438 15 -351  0
-438 -15  0
-438 351  0
439 -15 -352  0
-439 15  0
-439 352  0
440 -11 -355  0
-440 11  0
-440 355  0
441 11 -356  0
-441 -11  0
-441 356  0
-442 -15 357  0
442 15  0
442 -357  0
-443 15 358  0
443 -15  0
443 -358  0
444 2 -359  0
-444 -2  0
-444 359  0
445 -2 -360  0
-445 2  0
-445 360  0
446 -2 -361  0
-446 2  0
-446 361  0
447 2 -362  0
-447 -2  0
-447 362  0
448 9 -363  0
-448 -9  0
-448 363  0
449 5 -364  0
-449 -5  0
-449 364  0
450 -5 -365  0
-450 5  0
-450 365  0
451 -9 -363  0
-451 9  0
-451 363  0
452 -15 -363  0
-452 15  0
-452 363  0
453 15 -363  0
-453 -15  0
-453 363  0
-454 1 366  0
454 -1  0
454 -366  0
-455 -1 367  0
455 1  0
455 -367  0
-456 368 369  0
456 -368  0
456 -369  0
-457 370 371  0
457 -370  0
457 -371  0
-458 372 373  0
458 -372  0
458 -373  0
-459 374 375  0
459 -374  0
459 -375  0
-460 376 377  0
460 -376  0
460 -377  0
-461 378 379  0
461 -378  0
461 -379  0
-462 380 381  0
462 -380  0
462 -381  0
-463 382 383  0
463 -382  0
463 -383  0
-464 384 385  0
464 -384  0
464 -385  0
-465 386 387  0
465 -386  0
465 -387  0
-466 388 389  0
466 -388  0
466 -389  0
467 -299 -390  0
-467 299  0
-467 390  0
468 390 299  0
-468 -390  0
-468 -299  0
469 -391 -392  0
-469 391  0
-469 392  0
470 -393 -394  0
-470 393  0
-470 394  0
471 -395 -396  0
-471 395  0
-471 396  0
472 -397 -398  0
-472 397  0
-472 398  0
473 -399 -400  0
-473 399  0
-473 400  0
474 -401 -402  0
-474 401  0
-474 402  0
475 -403 -404  0
-475 403  0
-475 404  0
-476 316 405  0
476 -316  0
476 -405  0
-477 -405 -316  0
477 405  0
477 316  0
478 -406 -407  0
-478 406  0
-478 407  0
479 -408 -409  0
-479 408  0
-479 409  0
480 -410 -411  0
-480 410  0
-480 411  0
481 -412 -413  0
-481 412  0
-481 413  0
-482 414 415  0
482 -414  0
482 -415  0
-483 416 417  0
483 -416  0
483 -417  0
-484 418 419  0
484 -418  0
484 -419  0
-485 420 421  0
485 -420  0
485 -421  0
-486 422 423  0
486 -422  0
486 -423  0
-487 424 425  0
487 -424  0
487 -425  0
-488 426 427  0
488 -426  0
488 -427  0
-489 428 429  0
489 -428  0
489 -429  0
490 11 -430  0
-490 -11  0
-490 430  0
491 -11 -431  0
-491 11  0
-491 431  0
492 -432 -433  0
-492 432  0
-492 433  0
-493 434 435  0
493 -434  0
493 -435  0
-494 436 437  0
494 -436  0
494 -437  0
-495 438 439  0
495 -438  0
495 -439  0
-496 440 441  0
496 -440  0
496 -441  0
497 -442 -443  0
-497 442  0
-497 443  0
-498 444 445  0
498 -444  0
498 -445  0
-499 446 447  0
499 -446  0
499 -447  0
-500 449 450  0
500 -449  0
500 -450  0
501 -454 -455  0
-501 454  0
-501 455  0
-502 456 457  0
502 -456  0
502 -457  0
-503 458 459  0
503 -458  0
503 -459  0
504 -460 -461  0
-504 460  0
-504 461  0
505 -462 -463  0
-505 462  0
-505 463  0
506 -464 -465  0
-506 464  0
-506 465  0
-507 467 468  0
507 -467  0
507 -468  0
508 -469 -470  0
-508 469  0
-508 470  0
-509 471 472  0
509 -471  0
509 -472  0
-510 473 474  0
510 -473  0
510 -474  0
511 -476 -477  0
-511 476  0
-511 477  0
-512 478 479  0
512 -478  0
512 -479  0
513 -480 -481  0
-513 480  0
-513 481  0
514 -482 -483  0
-514 482  0
-514 483  0
515 -484 -485  0
-515 484  0
-515 485  0
516 -486 -487  0
-516 486  0
-516 487  0
517 -488 -489  0
-517 488  0
-517 489  0
-518 490 491  0
518 -490  0
518 -491  0
519 -346 -493  0
-519 346  0
-519 493  0
520 346 493  0
-520 -346  0
-520 -493  0
-521 -9 494  0
521 9  0
521 -494  0
-522 9 -494  0
522 -9  0
522 494  0
523 -495 263  0
-523 495  0
-523 -263  0
524 -354 -493  0
-524 354  0
-524 493  0
525 354 493  0
-525 -354  0
-525 -493  0
526 263 -494  0
-526 -263  0
-526 494  0
527 -5 -498  0
-527 5  0
-527 498  0
-528 7 499  0
528 -7  0
528 -499  0
-529 -7 -499  0
529 7  0
529 499  0
530 5 -498  0
-530 -5  0
-530 498  0
531 -9 -500  0
-531 9  0
-531 500  0
532 9 -500  0
-532 -9  0
-532 500  0
533 -7 499  0
-533 7  0
-533 -499  0
534 7 -499  0
-534 -7  0
-534 499  0
-535 5 -499  0
535 -5  0
535 499  0
-536 -5 -499  0
536 5  0
536 499  0
-537 502 503  0
537 -502  0
537 -503  0
-538 -502 -503  0
538 502  0
538 503  0
-539 504 505  0
539 -504  0
539 -505  0
-540 -504 -505  0
540 504  0
540 505  0
-541 466 507  0
541 -466  0
541 -507  0
-542 508 509  0
542 -508  0
542 -509  0
-543 -509 -508  0
543 509  0
543 508  0
-544 475 511  0
544 -475  0
544 -511  0
-545 512 513  0
545 -512  0
545 -513  0
-546 -513 -512  0
546 513  0
546 512  0
-547 514 515  0
547 -514  0
547 -515  0
-548 -514 -515  0
548 514  0
548 515  0
-549 516 517  0
549 -516  0
549 -517  0
-550 -517 -516  0
550 517  0
550 516  0
-551 519 520  0
551 -519  0
551 -520  0
552 -521 -522  0
-552 521  0
-552 522  0
-553 524 525  0
553 -524  0
553 -525  0
554 -528 -529  0
-554 528  0
-554 529  0
-555 448 531  0
555 -448  0
555 -531  0
-556 451 532  0
556 -451  0
556 -532  0
-557 533 534  0
557 -533  0
557 -534  0
558 -537 -538  0
-558 537  0
-558 538  0
559 -539 -540  0
-559 539  0
-559 540  0
-560 506 541  0
560 -506  0
560 -541  0
-561 -541 -506  0
561 541  0
561 506  0
562 -542 -543  0
-562 542  0
-562 543  0
-563 510 544  0
563 -510  0
563 -544  0
-564 -510 -544  0
564 510  0
564 544  0
565 -545 -546  0
-565 545  0
-565 546  0
566 -547 -548  0
-566 547  0
-566 548  0
567 -549 -550  0
-567 549  0
-567 550  0
568 7 -552  0
-568 -7  0
-568 552  0
569 -7 552  0
-569 7  0
-569 -552  0
570 7 552  0
-570 -7  0
-570 -552  0
571 -7 -552  0
-571 7  0
-571 552  0
572 -11 -554  0
-572 11  0
-572 554  0
573 11 554  0
-573 -11  0
-573 -554  0
574 7 -555  0
-574 -7  0
-574 555  0
575 -7 -556  0
-575 7  0
-575 556  0
-576 -11 557  0
576 11  0
576 -557  0
-577 11 -557  0
577 -11  0
577 557  0
578 -558 -559  0
-578 558  0
-578 559  0
579 -560 -561  0
-579 560  0
-579 561  0
580 -563 -564  0
-580 563  0
-580 564  0
-581 566 567  0
581 -566  0
581 -567  0
-582 568 569  0
582 -568  0
582 -569  0
-583 570 571  0
583 -570  0
583 -571  0
-584 572 573  0
584 -572  0
584 -573  0
-585 574 575  0
585 -574  0
585 -575  0
586 -576 -577  0
-586 576  0
-586 577  0
587 -579 -562  0
-587 579  0
-587 562  0
588 -580 -565  0
-588 580  0
-588 565  0
589 -582 -263  0
-589 582  0
-589 263  0
590 -263 -583  0
-590 263  0
-590 583  0
591 5 -584  0
-591 -5  0
-591 584  0
592 -5 -584  0
-592 5  0
-592 584  0
593 15 -585  0
-593 -15  0
-593 585  0
594 -15 -585  0
-594 15  0
-594 585  0
-595 -5 586  0
595 5  0
595 -586  0
-596 5 586  0
596 -5  0
596 -586  0
-597 578 587  0
597 -578  0
597 -587  0
-598 -578 -587  0
598 578  0
598 587  0
-599 588 581  0
599 -588  0
599 -581  0
-600 -588 -581  0
600 588  0
600 581  0
-601 589 523  0
601 -589  0
601 -523  0
-602 526 590  0
602 -526  0
602 -590  0
-603 527 591  0
603 -527  0
603 -591  0
-604 530 592  0
604 -530  0
604 -592  0
-605 593 452  0
605 -593  0
605 -452  0
-606 594 453  0
606 -594  0
606 -453  0
607 -595 -535  0
-607 595  0
-607 535  0
608 -596 -536  0
-608 596  0
-608 536  0
609 -597 -598  0
-609 597  0
-609 598  0
610 -599 -600  0
-610 599  0
-610 600  0
-611 551 601  0
611 -551  0
611 -601  0
612 -553 -602  0
-612 553  0
-612 602  0
613 -10 -603  0
-613 10  0
-613 603  0
614 10 -604  0
-614 -10  0
-614 604  0
615 -113 -605  0
-615 113  0
-615 605  0
616 113 -606  0
-616 -113  0
-616 606  0
-617 10 607  0
617 -10  0
617 -607  0
-618 -10 608  0
618 10  0
618 -608  0
619 -609 -610  0
-619 609  0
-619 610  0
620 -611 -353  0
-620 611  0
-620 353  0
621 10 -612  0
-621 -10  0
-621 612  0
622 -10 612  0
-622 10  0
-622 -612  0
-623 -10 -612  0
623 10  0
623 612  0
-624 -612 -258  0
624 612  0
624 258  0
-625 613 614  0
625 -613  0
625 -614  0
-626 615 616  0
626 -615  0
626 -616  0
627 -617 -618  0
-627 617  0
-627 618  0
-628 -10 -611  0
628 10  0
628 611  0
-629 10 -611  0
629 -10  0
629 611  0
-630 -611 -258  0
630 611  0
630 258  0
-631 621 622  0
631 -621  0
631 -622  0
632 12 -631  0
-632 -12  0
-632 631  0
633 -12 631  0
-633 12  0
-633 -631  0
-634 632 633  0
634 -632  0
634 -633  0
635 353 -634  0
-635 -353  0
-635 634  0
-636 620 635  0
636 -620  0
636 -635  0
-637 636 496  0
637 -636  0
637 -496  0
-638 -496 -636  0
638 496  0
638 636  0
-639 518 636  0
639 -518  0
639 -636  0
-640 -518 -636  0
640 518  0
640 636  0
641 -637 -638  0
-641 637  0
-641 638  0
642 -639 -640  0
-642 639  0
-642 640  0
-643 10 641  0
643 -10  0
643 -641  0
-644 -10 641  0
644 10  0
644 -641  0
-645 -258 641  0
645 258  0
645 -641  0
-646 -258 642  0
646 258  0
646 -642  0
-647 10 642  0
647 -10  0
647 -642  0
-648 -10 642  0
648 10  0
648 -642  0
649 -643 -623  0
-649 643  0
-649 623  0
650 621 -644  0
-650 -621  0
-650 644  0
651 -628 -647  0
-651 628  0
-651 647  0
652 -648 -629  0
-652 648  0
-652 629  0
-653 4 649  0
653 -4  0
653 -649  0
-654 -4 650  0
654 4  0
654 -650  0
-655 -4 649  0
655 4  0
655 -649  0
-656 4 650  0
656 -4  0
656 -650  0
-657 -4 651  0
657 4  0
657 -651  0
-658 4 652  0
658 -4  0
658 -652  0
-659 4 651  0
659 -4  0
659 -651  0
-660 -4 652  0
660 4  0
660 -652  0
661 -653 -654  0
-661 653  0
-661 654  0
662 -655 -656  0
-662 655  0
-662 656  0
663 -657 -658  0
-663 657  0
-663 658  0
664 -659 -660  0
-664 659  0
-664 660  0
-665 258 661  0
665 -258  0
665 -661  0
-666 258 662  0
666 -258  0
666 -662  0
-667 258 663  0
667 -258  0
667 -663  0
-668 664 258  0
668 -664  0
668 -258  0
669 -665 -624  0
-669 665  0
-669 624  0
670 -666 -645  0
-670 666  0
-670 645  0
671 -646 -667  0
-671 646  0
-671 667  0
672 -630 -668  0
-672 630  0
-672 668  0
-673 669 497  0
673 -669  0
673 -497  0
-674 670 -497  0
674 -670  0
674 497  0
-675 671 -497  0
675 -671  0
675 497  0
-676 672 497  0
676 -672  0
676 -497  0
677 -673 -674  0
-677 673  0
-677 674  0
678 -675 -676  0
-678 675  0
-678 676  0
-679 257 677  0
679 -257  0
679 -677  0
-680 3 677  0
680 -3  0
680 -677  0
-681 -3 677  0
681 3  0
681 -677  0
-682 -625 677  0
682 625  0
682 -677  0
-683 678 -625  0
683 -678  0
683 625  0
-684 678 257  0
684 -678  0
684 -257  0
685 -3 -678  0
-685 3  0
-685 678  0
686 3 -678  0
-686 -3  0
-686 678  0
-687 14 680  0
687 -14  0
687 -680  0
-688 -14 681  0
688 14  0
688 -681  0
-689 14 681  0
689 -14  0
689 -681  0
-690 -14 680  0
690 14  0
690 -680  0
-691 -14 685  0
691 14  0
691 -685  0
-692 14 686  0
692 -14  0
692 -686  0
-693 14 685  0
693 -14  0
693 -685  0
-694 -14 686  0
694 14  0
694 -686  0
695 -687 -688  0
-695 687  0
-695 688  0
696 -689 -690  0
-696 689  0
-696 690  0
697 -691 -692  0
-697 691  0
-697 692  0
698 -693 -694  0
-698 693  0
-698 694  0
-699 -257 695  0
699 257  0
699 -695  0
-700 271 696  0
700 -271  0
700 -696  0
-701 -257 697  0
701 257  0
701 -697  0
702 -257 -698  0
-702 257  0
-702 698  0
703 -679 -699  0
-703 679  0
-703 699  0
-704 700 -492  0
704 -700  0
704 492  0
-705 492 700  0
705 -492  0
705 -700  0
706 -684 -701  0
-706 684  0
-706 701  0
-707 702 -492  0
707 -702  0
707 492  0
-708 702 492  0
708 -702  0
708 -492  0
-709 492 703  0
709 -492  0
709 -703  0
-710 703 -492  0
710 -703  0
710 492  0
-711 492 706  0
711 -492  0
711 -706  0
-712 706 -492  0
712 -706  0
712 492  0
713 -709 -704  0
-713 709  0
-713 704  0
714 -705 -710  0
-714 705  0
-714 710  0
715 -711 -707  0
-715 711  0
-715 707  0
716 -708 -712  0
-716 708  0
-716 712  0
-717 713 625  0
717 -713  0
717 -625  0
-718 714 627  0
718 -714  0
718 -627  0
-719 625 715  0
719 -625  0
719 -715  0
720 -716 625  0
-720 716  0
-720 -625  0
721 -717 -682  0
-721 717  0
-721 682  0
-722 718 -262  0
722 -718  0
722 262  0
-723 -15 718  0
723 15  0
723 -718  0
-724 15 718  0
724 -15  0
724 -718  0
725 -683 -719  0
-725 683  0
-725 719  0
-726 -15 720  0
726 15  0
726 -720  0
-727 15 720  0
727 -15  0
727 -720  0
-728 -262 720  0
728 262  0
728 -720  0
-729 721 626  0
729 -721  0
729 -626  0
-730 15 721  0
730 -15  0
730 -721  0
-731 -15 721  0
731 15  0
731 -721  0
-732 721 -262  0
732 -721  0
732 262  0
-733 725 626  0
733 -725  0
733 -626  0
-734 15 725  0
734 -15  0
734 -725  0
-735 -15 725  0
735 15  0
735 -725  0
-736 725 -262  0
736 -725  0
736 262  0
737 -730 -723  0
-737 730  0
-737 723  0
738 -724 -731  0
-738 724  0
-738 731  0
739 -726 -734  0
-739 726  0
-739 734  0
740 -735 -727  0
-740 735  0
-740 727  0
-741 -14 737  0
741 14  0
741 -737  0
-742 14 738  0
742 -14  0
742 -738  0
-743 14 737  0
743 -14  0
743 -737  0
-744 -14 738  0
744 14  0
744 -738  0
-745 14 739  0
745 -14  0
745 -739  0
-746 -14 740  0
746 14  0
746 -740  0
-747 14 740  0
747 -14  0
747 -740  0
-748 -14 739  0
748 14  0
748 -739  0
749 -741 -742  0
-749 741  0
-749 742  0
750 -743 -744  0
-750 743  0
-750 744  0
751 -745 -746  0
-751 745  0
-751 746  0
752 -747 -748  0
-752 747  0
-752 748  0
-753 749 262  0
753 -749  0
753 -262  0
-754 750 262  0
754 -750  0
754 -262  0
-755 751 262  0
755 -751  0
755 -262  0
-756 262 752  0
756 -262  0
756 -752  0
757 -722 -753  0
-757 722  0
-757 753  0
758 -732 -754  0
-758 732  0
-758 754  0
759 -755 -736  0
-759 755  0
-759 736  0
760 -756 -728  0
-760 756  0
-760 728  0
-761 501 757  0
761 -501  0
761 -757  0
-762 -501 758  0
762 501  0
762 -758  0
-763 759 -501  0
763 -759  0
763 501  0
-764 501 760  0
764 -501  0
764 -760  0
765 -761 -762  0
-765 761  0
-765 762  0
766 -763 -764  0
-766 763  0
-766 764  0
-767 765 -626  0
767 -765  0
767 626  0
-768 -626 766  0
768 626  0
768 -766  0
769 -729 -767  0
-769 729  0
-769 767  0
770 -733 -768  0
-770 733  0
-770 768  0
-771 769 619  0
771 -769  0
771 -619  0
-772 -619 770  0
772 619  0
772 -770  0
773 -771 -772  0
-773 771  0
-773 772  0
